;; sat

(declare-const x1 sl.list.loc)
(declare-const x2 sl.list.loc)
(declare-const x3 sl.list.loc)
(declare-const x5 sl.list.loc)
(declare-const x6 sl.list.loc)
(declare-const x7 sl.list.loc)
(declare-const x8 sl.list.loc)
(declare-const x9 sl.list.loc)
(declare-const x10 sl.list.loc)
(declare-const x11 sl.list.loc)
(declare-const x12 sl.list.loc)
(declare-const x13 sl.list.loc)
(declare-const x15 sl.list.loc)
(declare-const x16 sl.list.loc)
(declare-const x17 sl.list.loc)
(declare-const x18 sl.list.loc)
(declare-const x19 sl.list.loc)

(assert (sl.sepcon (sl.sepcon (sl.sepcon (sl.sepcon (sl.sepcon (sl.sepcon (sl.sepcon (sl.sepcon (sl.sepcon (sl.sepcon (sl.sepcon (sl.sepcon (sl.sepcon (sl.sepcon (sl.sepcon (sl.sepcon (sl.sepcon (sl.sepcon (sl.sepcon (sl.sepcon (sl.list.eq sl.list.null sl.list.null)
 (sl.list.neq x11 x13)
)
 (sl.list.neq x11 x15)
)
 (sl.list.neq x3 x6)
)
 (sl.list.neq x7 x9)
)
 (sl.list.neq x9 x18)
)
 (sl.list.neq x9 x19)
)
 (sl.list.neq x12 x18)
)
 (sl.list.neq x12 x19)
)
 (sl.list.neq x2 x16)
)
 (sl.list.neq x2 x13)
)
 (sl.list.neq x8 x18)
)
 (sl.list.neq x8 x10)
)
 (sl.list.neq x1 x6)
)
 (sl.list.neq x1 x7)
)
 (sl.list.neq x1 x10)
)
 (sl.list.neq x1 x16)
)
 (sl.list.neq x1 x17)
)
 (sl.list.neq x5 x16)
)
 (sl.list.neq x5 x13)
)
 (sl.sepcon (sl.sepcon (sl.sepcon (sl.sepcon (sl.sepcon (sl.list.seg x8 x1)
 (sl.list.seg x12 x19)
)
 (sl.list.seg x17 x19)
)
 (sl.list.seg x7 x17)
)
 (sl.list.seg x7 x12)
)
 (sl.list.seg x3 x2)
)
)
)

